
  21    0


   0  10 2 3 4 7 8 9 17 18 19 20 
   8   5 16 15 13 12 11 
   1   3 14 11 6 
   5   2 14 5 
   5   1 10 
   5   1 10 
   6   1 13 
   6   1 12 
  10   1 11 
   7   1 21
   1   1 21
   1   1 21
   2   1 21
   2   1 21
   9   1 21
   9   1 21
   9   1 21
   3   1 21
   8   1 21
   5   1 21
   0   0 
